Hexagonal M-K-G-M
50  ! 50 grids 
Line-mode
reciprocal
   0.500        0.000        0.000   ! M
   0.333333333  0.333333333  0.000   ! K
 
   0.333333333  0.333333333  0.000   ! K
   0.000        0.000        0.000   ! \Gamma
 
   0.000        0.000        0.000   ! \Gamma
   0.500        0.000        0.000   ! M
