Mo1S2                                   
   1.00000000000000     
     3.1830599307999998    0.0000000000000000    0.0000000000000000
    -1.5915299653999999    2.7566107618000002    0.0000000000000000
     0.0000026991000000    0.0000109083000000   20.2699680328000014
   Mo   S 
     1     2
Direct
  0.6666693230000007  0.3333217770000019  0.1678141040000014
  0.3333188610000022  0.6666460810000032  0.0906781090000024
  0.3333188129999982  0.6666461189999993  0.2449511880000017
 
  0.00000000E+00  0.00000000E+00  0.00000000E+00
  0.00000000E+00  0.00000000E+00  0.00000000E+00
  0.00000000E+00  0.00000000E+00  0.00000000E+00
