Mo1S2   
1.0
        3.2042300701         0.0000000000         0.0000000000
       -1.6023254395         2.7753090714         0.0000000000
        0.0000000000         0.0000000000        12.0000000000
   Mo    S
    1    2
Direct
     0.666765944         0.333531838         0.279690782
     0.333270519         0.666541060         0.148993333
     0.333270519         0.666541060         0.410388231
